50
4530

218 919
855 882
802 569
28 253
580 980
518 49
660 878
732 624
637 666
565 483
811 14
849 321
232 692
293 894
239 128
54 429
625 881
404 744
302 358
185 75
262 312
848 394
746 781
805 209
189 563
274 364
961 405
789 547
230 2
398 266
726 895
396 577
454 738
210 485
987 43
833 458
377 921
537 651
888 917
443 804
63 893
289 665
172 535
720 624
667 568
818 372
341 243
805 936
5 857
95 893
